
Gurobi 9.1.2 (win64, Java) logging started Tue Nov  9 15:36:34 2021

Academic license - for non-commercial use only - expires 2022-10-30
Gurobi Optimizer version 9.1.2 build v9.1.2rc0 (win64)
Thread count: 6 physical cores, 12 logical processors, using up to 12 threads
Optimize a model with 450 rows, 45000 columns and 90000 nonzeros
Model fingerprint: 0x3f755555
Variable types: 0 continuous, 45000 integer (45000 binary)
Coefficient statistics:
  Matrix range     [1e+00, 1e+03]
  Objective range  [3e+00, 1e+03]
  Bounds range     [1e+00, 1e+00]
  RHS range        [1e+00, 1e+03]
Found heuristic solution: objective 93769.000000
Presolve removed 118 rows and 22166 columns
Presolve time: 0.35s
Presolved: 332 rows, 22834 columns, 45661 nonzeros
Found heuristic solution: objective 94412.000000
Variable types: 0 continuous, 22834 integer (22834 binary)
Presolve removed 0 rows and 5 columns
Presolved: 332 rows, 22829 columns, 45656 nonzeros


Root relaxation: objective 9.490892e+04, 217 iterations, 0.02 seconds

    Nodes    |    Current Node    |     Objective Bounds      |     Work
 Expl Unexpl |  Obj  Depth IntInf | Incumbent    BestBd   Gap | It/Node Time

     0     0 94908.9176    0    1 94412.0000 94908.9176  0.53%     -    0s
H    0     0                    94475.000000 94908.9176  0.46%     -    0s
     0     0 94488.1579    0    1 94475.0000 94488.1579  0.01%     -    0s

Cutting planes:
  Cover: 2

Explored 1 nodes (3118 simplex iterations) in 0.64 seconds
Thread count was 12 (of 12 available processors)

Solution count 3: 94475 94412 93769 

Optimal solution found (tolerance 1.00e-04)
Best objective 9.447500000000e+04, best bound 9.447500000000e+04, gap 0.0000%
